500
    1   281   281
    2   242   242
    3   442   442
    4   442   442
    5   356   356
    6   468   468
    7   425   425
    8   168   168
    9   214   214
   10   377   377
   11   263   263
   12   357   357
   13    75    75
   14   217   217
   15    41    41
   16   419   419
   17   319   319
   18   194   194
   19   312   312
   20   134   134
   21   325   325
   22   487   487
   23   237   237
   24   127   127
   25   310   310
   26   299   299
   27   386   386
   28   430   430
   29   306   306
   30   359   359
   31   346   346
   32   500   500
   33   207   207
   34    30    30
   35   118   118
   36   238   238
   37   179   179
   38   386   386
   39   208   208
   40   169   169
   41    51    51
   42   253   253
   43   453   453
   44    59    59
   45   238   238
   46   140   140
   47   500   500
   48    96    96
   49   182   182
   50    57    57
   51   470   470
   52    70    70
   53   324   324
   54   384   384
   55   157   157
   56   247   247
   57   315   315
   58    86    86
   59   497   497
   60    28    28
   61   419   419
   62   361   361
   63   177   177
   64   456   456
   65   285   285
   66    24    24
   67   335   335
   68   475   475
   69   306   306
   70   339   339
   71    15    15
   72   353   353
   73    98    98
   74   285   285
   75   114   114
   76   483   483
   77   202   202
   78   458   458
   79   180   180
   80   347   347
   81   353   353
   82   368   368
   83    63    63
   84   129   129
   85   448   448
   86    49    49
   87   159   159
   88   303   303
   89   125   125
   90   378   378
   91   156   156
   92   311   311
   93   471   471
   94   336   336
   95   415   415
   96   184   184
   97   481   481
   98   412   412
   99   202   202
  100   437   437
  101   468   468
  102    39    39
  103   134   134
  104   314   314
  105   447   447
  106   383   383
  107   182   182
  108   353   353
  109   246   246
  110   432   432
  111   121   121
  112   162   162
  113   279   279
  114   394   394
  115   380   380
  116   116   116
  117   306   306
  118   480   480
  119   468   468
  120   407   407
  121   110   110
  122   376   376
  123   384   384
  124    50    50
  125   277   277
  126   133   133
  127    24    24
  128   161   161
  129   333   333
  130   182   182
  131   218   218
  132    53    53
  133   258   258
  134    25    25
  135   500   500
  136   281   281
  137   214   214
  138   440   440
  139   455   455
  140   465   465
  141    75    75
  142   125   125
  143   279   279
  144    67    67
  145   304   304
  146   417   417
  147   101   101
  148    85    85
  149   413   413
  150   346   346
  151   242   242
  152   250   250
  153   148   148
  154   406   406
  155   345   345
  156    69    69
  157   418   418
  158   192   192
  159   484   484
  160    11    11
  161   139   139
  162    91    91
  163     3     3
  164   350   350
  165   436   436
  166   201   201
  167   491   491
  168   418   418
  169   179   179
  170   489   489
  171   115   115
  172   244   244
  173   281   281
  174   434   434
  175   306   306
  176   455   455
  177    96    96
  178   244   244
  179   165   165
  180   354   354
  181   402   402
  182   102   102
  183   290   290
  184   197   197
  185   242   242
  186   157   157
  187    57    57
  188     8     8
  189   298   298
  190    36    36
  191   471   471
  192   458   458
  193    59    59
  194    69    69
  195   454   454
  196    68    68
  197   350   350
  198   372   372
  199   390   390
  200   492   492
  201   479   479
  202   152   152
  203   150   150
  204   469   469
  205    80    80
  206   458   458
  207   190   190
  208   101   101
  209   363   363
  210    91    91
  211   220   220
  212   455   455
  213   297   297
  214   402   402
  215   288   288
  216   464   464
  217   104   104
  218   250   250
  219   135   135
  220   400   400
  221   316   316
  222   197   197
  223   209   209
  224   250   250
  225    23    23
  226   137   137
  227   227   227
  228   123   123
  229   103   103
  230    54    54
  231   428   428
  232   125   125
  233   469   469
  234    11    11
  235   143   143
  236   133   133
  237    63    63
  238   498   498
  239   106   106
  240   315   315
  241   445   445
  242    85    85
  243    10    10
  244   298   298
  245   457   457
  246    82    82
  247   412   412
  248    79    79
  249   499   499
  250    95    95
  251   288   288
  252   352   352
  253   133   133
  254   108   108
  255    25    25
  256   482   482
  257   228   228
  258   467   467
  259   317   317
  260   416   416
  261   363   363
  262   366   366
  263   375   375
  264   359   359
  265   156   156
  266   320   320
  267    86    86
  268   402   402
  269    82    82
  270   133   133
  271   160   160
  272   239   239
  273   383   383
  274   200   200
  275   104   104
  276   209   209
  277    75    75
  278   387   387
  279    46    46
  280   289   289
  281   361   361
  282   286   286
  283     2     2
  284    88    88
  285   241   241
  286   245   245
  287    93    93
  288   475   475
  289   147   147
  290   456   456
  291   272   272
  292   282   282
  293   176   176
  294    25    25
  295   257   257
  296    59    59
  297   210   210
  298   252   252
  299   108   108
  300   422   422
  301    31    31
  302   188   188
  303   446   446
  304   354   354
  305   451   451
  306   243   243
  307    18    18
  308   499   499
  309   219   219
  310   284   284
  311     2     2
  312    64    64
  313   480   480
  314   409   409
  315   289   289
  316   453   453
  317   159   159
  318   231   231
  319   487   487
  320   105   105
  321   103   103
  322   186   186
  323   332   332
  324   225   225
  325   108   108
  326   126   126
  327   235   235
  328    73    73
  329   231   231
  330   328   328
  331   376   376
  332   225   225
  333   384   384
  334    71    71
  335   417   417
  336   408   408
  337   103   103
  338   182   182
  339   367   367
  340   213   213
  341   352   352
  342    78    78
  343   291   291
  344   162   162
  345   242   242
  346    34    34
  347   147   147
  348    46    46
  349    96    96
  350   431   431
  351   136   136
  352   372   372
  353   200   200
  354   499   499
  355   491   491
  356   326   326
  357   316   316
  358   298   298
  359    61    61
  360    88    88
  361   393   393
  362   147   147
  363   498   498
  364    21    21
  365   234   234
  366   241   241
  367   106   106
  368   441   441
  369   206   206
  370   113   113
  371   247   247
  372   353   353
  373   140   140
  374   469   469
  375   199   199
  376   296   296
  377    81    81
  378   363   363
  379   207   207
  380   243   243
  381    16    16
  382   456   456
  383   264   264
  384   319   319
  385   342   342
  386    57    57
  387    78    78
  388   256   256
  389   283   283
  390   432   432
  391    83    83
  392   333   333
  393   225   225
  394    44    44
  395    39    39
  396   436   436
  397    64    64
  398   434   434
  399   347   347
  400   144   144
  401    28    28
  402   200   200
  403   454   454
  404   449   449
  405    16    16
  406   196   196
  407   496   496
  408   394   394
  409   368   368
  410   418   418
  411   482   482
  412    92    92
  413    26    26
  414   279   279
  415   371   371
  416   335   335
  417    37    37
  418   178   178
  419   303   303
  420    27    27
  421   234   234
  422    65    65
  423   433   433
  424   137   137
  425   292   292
  426   293   293
  427   222   222
  428    53    53
  429   291   291
  430   167   167
  431   345   345
  432   266   266
  433   118   118
  434   199   199
  435   217   217
  436   385   385
  437   239   239
  438    51    51
  439   388   388
  440   435   435
  441    99    99
  442   469   469
  443   230   230
  444   282   282
  445   311   311
  446   159   159
  447   477   477
  448   256   256
  449   129   129
  450   320   320
  451    37    37
  452   383   383
  453   425   425
  454   380   380
  455   447   447
  456   205   205
  457     1     1
  458   364   364
  459   384   384
  460   184   184
  461   359   359
  462   136   136
  463   208   208
  464   315   315
  465    82    82
  466    42    42
  467    68    68
  468    35    35
  469   379   379
  470    95    95
  471   101   101
  472   200   200
  473   443   443
  474   490   490
  475   427   427
  476   152   152
  477   254   254
  478   401   401
  479   330   330
  480   346   346
  481   403   403
  482     5     5
  483   361   361
  484   473   473
  485    91    91
  486    26    26
  487   253   253
  488   488   488
  489    92    92
  490   271   271
  491   284   284
  492   194   194
  493   347   347
  494   364   364
  495   351   351
  496   211   211
  497    62    62
  498   477   477
  499   150   150
  500   445   445
21313
